============================[ Problem Statistics ]=============================|                                                                             ||  Number of variables:          4242                                         ||  Number of clauses:           10257                                         ||  Parse time:                   0.65 s                                       ||                                                                             |============================[ Search Statistics ]==============================| Conflicts |          ORIGINAL         |          LEARNT          | Progress ||           |    Vars  Clauses Literals |    Limit  Clauses Lit/Cl |          |===============================================================================|       100 |    1591     6462  1028443 |     2369      100     53 | 62.501 % ||       250 |    1591     6462  1028443 |     2606      250     75 | 62.495 % |===============================================================================restarts              : 3conflicts             : 353            (355 /sec)decisions             : 618            (0.00 % random) (621 /sec)propagations          : 11960          (12020 /sec)conflict literals     : 28699          (94.63 % deleted)CPU time              : 0.995 sSATISFIABLE